<number of tasks>
20


<number of equipment>
5


<cycle time>
1000


<investment costs>
1,27846
2,15177
3,23435
4,23420
5,9806


<task times>
1,108,172,-1,-1,-1
2,83,-1,168,-1,287
3,-1,202,-1,128,244
4,91,-1,132,-1,278
5,76,-1,126,-1,255
6,-1,222,-1,132,246
7,77,-1,128,-1,226
8,120,-1,216,-1,275
9,82,-1,151,-1,289
10,-1,117,-1,106,138
11,-1,208,-1,127,256
12,-1,288,-1,203,294
13,-1,203,-1,108,247
14,96,-1,128,-1,192
15,-1,151,-1,125,70
16,78,172,-1,-1,-1
17,-1,189,-1,115,284
18,-1,199,-1,132,278
19,78,126,-1,-1,-1
20,-1,218,-1,110,253


<precedence relations>
1,9
2,9
3,6
4,5
4,7
4,8
5,9
6,9
7,10
7,19
7,20
8,10
9,11
9,12
9,13
9,14
10,15
10,18
11,16
11,17
13,16
15,17
16,18
16,19
16,20


<task types>
1,1
2,2
3,3
4,2
5,2
6,3
7,2
8,2
9,2
10,3
11,3
12,3
13,3
14,2
15,3
16,1
17,3
18,3
19,1
20,3


<line depot>
1,1
2,1
3,0
4,1
5,5


<processing costs>
1,14400
2,14400
3,7200
4,7200
5,14400


<saving costs>
1,2784
2,1517
3,2343
4,2342
5,980


<end>
